
Gurobi 10.0.3 (linux64, gurobi_cl) logging started Fri Nov 10 19:40:22 2023

Set parameter Username
Set parameter TimeLimit to value 3600
Set parameter LogFile to value "RCPSP_1715.log"
Set parameter Threads to value 32
Academic license - for non-commercial use only - expires 2024-10-30
Using license file /home/jrivera6/gurobi-licenses/v1003/compute-0-34/gurobi.lic

Gurobi Optimizer version 10.0.3 build v10.0.3rc0 (linux64)
Copyright (c) 2023, Gurobi Optimization, LLC

Read MPS format model from file RCPSP_1715.mps
Reading time = 0.12 seconds
RCPSP_1715: 75251 rows, 29890 columns, 251666 nonzeros

CPU model: Intel(R) Xeon(R) Gold 6130 CPU @ 2.10GHz, instruction set [SSE2|AVX|AVX2|AVX512]
Thread count: 32 physical cores, 32 logical processors, using up to 32 threads

Optimize a model with 75251 rows, 29890 columns and 251666 nonzeros
Model fingerprint: 0xf961ef71
Variable types: 122 continuous, 29768 integer (29768 binary)
Coefficient statistics:
  Matrix range     [1e+00, 6e+02]
  Objective range  [1e+00, 1e+00]
  Bounds range     [1e+00, 1e+00]
  RHS range        [1e+00, 6e+02]
Presolve removed 11163 rows and 1597 columns (presolve time = 5s) ...
Presolve removed 13298 rows and 2638 columns
Presolve time: 8.88s
Presolved: 61953 rows, 27252 columns, 217175 nonzeros
Variable types: 121 continuous, 27131 integer (27131 binary)

Deterministic concurrent LP optimizer: primal and dual simplex (primal and dual model)
Showing first log only...

Root relaxation presolved: 61953 rows, 27252 columns, 217175 nonzeros


Root simplex log...

Iteration    Objective       Primal Inf.    Dual Inf.      Time
       0    1.0215757e+02   5.656275e-03   1.162891e+08     11s
    3909    1.0200000e+02   0.000000e+00   0.000000e+00     11s
Concurrent spin time: 0.93s

Solved with dual simplex (dual model)

Root relaxation: objective 1.020000e+02, 32257 iterations, 3.02 seconds (0.25 work units)
Total elapsed time = 17.22s

    Nodes    |    Current Node    |     Objective Bounds      |     Work
 Expl Unexpl |  Obj  Depth IntInf | Incumbent    BestBd   Gap | It/Node Time

     0     0  102.00000    0   72          -  102.00000      -     -   21s
     0     0  102.00000    0   72          -  102.00000      -     -   21s
     0     0  102.00000    0 1153          -  102.00000      -     -   63s
     0     0  102.00000    0  903          -  102.00000      -     -   64s
     0     0  102.00000    0  167          -  102.00000      -     -  118s
     0     0  102.00000    0  243          -  102.00000      -     -  148s
     0     0  102.00000    0  243          -  102.00000      -     -  149s
     0     0  102.00000    0  241          -  102.00000      -     -  149s
     0     0  102.00000    0   64          -  102.00000      -     -  175s
     0     0  102.00000    0  131          -  102.00000      -     -  184s
     0     0  102.00000    0   72          -  102.00000      -     -  200s
     0     0  102.00000    0 1478          -  102.00000      -     -  228s
     0     0  102.00000    0 1466          -  102.00000      -     -  228s
     0     0  102.00000    0  125          -  102.00000      -     -  242s
     0     0  102.00000    0  286          -  102.00000      -     -  244s
     0     0  102.00000    0  115          -  102.00000      -     -  253s
     0     0  102.00000    0  569          -  102.00000      -     -  269s
     0     0  102.00000    0  484          -  102.00000      -     -  269s
     0     0  102.00000    0   97          -  102.00000      -     -  303s
     0     0  102.00000    0   61          -  102.00000      -     -  310s
     0     2  102.00000    0   52          -  102.00000      -     -  348s
     1     4  102.00000    1   56          -  102.00000      -  2557  357s
     3     8  102.00000    2  375          -  102.00000      -  1001  370s
     7    16  102.00000    3  604          -  102.00000      -   607  385s
    15    32  102.00000    4  759          -  102.00000      -   361  419s
    31    61  102.00000    5  699          -  102.00000      -   275  448s
    63    92  102.00000    6  473          -  102.00000      -   278  492s
    95   123  102.00000    7  456          -  102.00000      -   304  508s
   127   155  102.00000    7  746          -  102.00000      -   253  520s
   159   182  102.00000    8  736          -  102.00000      -   225  538s
   191   212  102.00000    9  736          -  102.00000      -   207  581s
   223   241  102.00000   10   70          -  102.00000      -   382  630s
   257   271  102.00000   11   70          -  102.00000      -   513  694s
   293   356  102.00000   12   72          -  102.00000      -   594  749s
   397   551  102.00000   14   71          -  102.00000      -   504  834s
   540   551  102.00000   17  186          -  102.00000      -   414  835s
   624   876  102.00000   19  169          -  102.00000      -   380 1084s
   667   876  102.00000   19  432          -  102.00000      -   376 1088s
   685   876  102.00000   22  124          -  102.00000      -   384 1090s
  1018  1325  102.00000   21   48          -  102.00000      -   315 1572s
  1341  1325  102.00000   30   86          -  102.00000      -   306 1581s
  1584  2095  102.00000   40   80          -  102.00000      -   294 2174s
  1716  2095  102.00000   31   75          -  102.00000      -   284 2269s
  1896  2095  102.00000   33   91          -  102.00000      -   279 2277s
  1986  2095  102.00000   31   65          -  102.00000      -   282 2280s
  2549  3228  102.00000   63  181          -  102.00000      -   267 3648s
  2628  3228  102.00000   26  158          -  102.00000      -   268 3662s

Cutting planes:
  Gomory: 2
  Cover: 80
  Implied bound: 154
  Clique: 1
  MIR: 776
  StrongCG: 9
  Inf proof: 1
  Zero half: 2
  RLT: 766
  Relax-and-lift: 123

Explored 4040 nodes (1196409 simplex iterations) in 3739.36 seconds (115.32 work units)
Thread count was 32 (of 32 available processors)

Solution count 0

Time limit reached
Best objective -, best bound 1.020000000000e+02, gap -

Unable to retrieve attribute 'X'

